
  14    0


   0   8 2 4 5 9 10 11 12 13 
   4   2 6 3 
   3   1 7 
   6   1 8 
   1   1 6 
   8   1 14
   9   1 14
   4   1 14
   4   1 14
   6   1 14
   9   1 14
  10   1 14
   3   1 14
   0   0 
